DIMENSION: 16
EDGE_WEIGHT_TYPE: EXPLICIT
EDGE_WEIGHT_FORMAT: FULL_MATRIX
EDGE_WEIGHT_SECTION:
32767 71 32767 32767 32767 54 32767 32767 32767 79 98 85 24 32767 32767 32767 
71 32767 66 63 32767 32767 32767 32767 55 65 48 32767 54 76 32767 32767 
32767 66 32767 2 32767 32767 58 32767 32767 32767 32767 32767 32767 32767 32767 45 
32767 63 2 32767 32767 39 32767 3 32767 2 12 32767 31 41 34 32767 
32767 32767 32767 32767 32767 92 78 58 88 32767 60 32767 32767 32767 32767 32767 
54 32767 32767 39 92 32767 61 32767 14 32767 32767 91 41 32767 74 59 
32767 32767 58 32767 78 61 32767 32767 32767 32767 32767 32767 11 32767 22 32767 
32767 32767 32767 3 58 32767 32767 32767 32767 32767 32767 32767 70 29 32767 32767 
32767 55 32767 32767 88 14 32767 32767 32767 38 7 32767 44 26 32767 32767 
79 65 32767 2 32767 32767 32767 32767 38 32767 89 32767 32767 32767 32767 32767 
98 48 32767 12 60 32767 32767 32767 7 89 32767 32767 32767 32 32767 32767 
85 32767 32767 32767 32767 91 32767 32767 32767 32767 32767 32767 56 32767 37 32767 
24 54 32767 31 32767 41 11 70 44 32767 32767 56 32767 89 32767 47 
32767 76 32767 41 32767 32767 32767 29 26 32767 32 32767 89 32767 71 32767 
32767 32767 32767 34 32767 74 22 32767 32767 32767 32767 37 32767 71 32767 48 
32767 32767 45 32767 32767 59 32767 32767 32767 32767 32767 32767 47 32767 48 32767 
EOF